DIMACS2
20 26 122 194 284 110 135 10 28 187 182 314 192 159 210 153 14 239 178 2 203
p edge 320 1380
e 0 200 1.0
e 0 36 1.0
e 0 85 1.0
e 0 11 2.0
e 1 249 1.0
e 1 201 1.0
e 1 44 1.0
e 1 12 1.0
e 2 129 26.0
e 2 17 20.0
e 2 100 14.0
e 2 176 39.0
e 2 26 33.0
e 2 122 19.0
e 2 28 12.0
e 2 239 7.0
e 2 153 5.0
e 2 54 39.0
e 2 284 29.0
e 2 182 2.0
e 2 159 21.0
e 2 92 22.0
e 2 314 49.0
e 3 302 1.0
e 3 230 2.0
e 3 198 1.0
e 3 196 1.0
e 4 152 2.0
e 4 31 2.0
e 4 271 2.0
e 4 23 1.0
e 5 168 1.0
e 5 136 1.0
e 5 74 3.0
e 5 122 14.0
e 6 245 1.0
e 6 306 1.0
e 6 8 1.0
e 6 235 1.0
e 7 190 2.0
e 7 186 1.0
e 7 253 1.0
e 7 264 1.0
e 8 204 1.0
e 8 77 1.0
e 8 233 1.0
e 8 91 1.0
e 9 22 1.0
e 9 69 1.0
e 9 164 1.0
e 9 283 1.0
e 10 239 32.0
e 10 86 12.0
e 10 121 13.0
e 10 199 16.0
e 10 284 42.0
e 10 26 1.0
e 10 314 36.0
e 10 319 19.0
e 10 14 11.0
e 10 178 8.0
e 10 2 45.0
e 11 310 1.0
e 11 284 10.0
e 11 162 1.0
e 11 41 1.0
e 12 86 1.0
e 12 316 1.0
e 12 310 1.0
e 12 297 1.0
e 13 231 1.0
e 13 60 1.0
e 13 172 1.0
e 13 6 1.0
e 14 162 42.0
e 14 4 48.0
e 14 45 36.0
e 14 138 43.0
e 14 153 2.0
e 14 26 31.0
e 14 210 37.0
e 14 178 9.0
e 14 187 45.0
e 14 110 20.0
e 14 135 48.0
e 14 28 29.0
e 14 216 28.0
e 14 2 7.0
e 15 252 1.0
e 15 225 1.0
e 15 212 1.0
e 15 193 1.0
e 16 45 1.0
e 16 256 1.0
e 16 209 1.0
e 16 135 22.0
e 17 58 2.0
e 17 185 2.0
e 17 149 1.0
e 17 85 2.0
e 18 105 2.0
e 18 169 1.0
e 18 180 1.0
e 18 254 1.0
e 19 38 1.0
e 19 72 3.0
e 19 229 1.0
e 19 70 1.0
e 20 188 1.0
e 20 124 1.0
e 20 136 1.0
e 20 75 1.0
e 21 305 1.0
e 21 117 1.0
e 21 41 1.0
e 21 82 1.0
e 22 307 1.0
e 22 279 1.0
e 22 148 1.0
e 22 52 1.0
e 23 125 2.0
e 23 10 35.0
e 23 296 1.0
e 23 95 3.0
e 24 222 1.0
e 24 200 1.0
e 24 283 1.0
e 24 8 1.0
e 25 53 1.0
e 25 40 1.0
e 25 318 1.0
e 25 270 1.0
e 26 139 26.0
e 26 45 40.0
e 26 250 8.0
e 26 117 42.0
e 26 110 9.0
e 26 122 36.0
e 27 217 2.0
e 27 154 1.0
e 27 97 2.0
e 27 162 1.0
e 28 173 23.0
e 28 103 1.0
e 28 141 17.0
e 28 306 17.0
e 28 284 45.0
e 28 110 16.0
e 28 122 14.0
e 28 314 26.0
e 28 123 15.0
e 28 319 19.0
e 28 187 42.0
e 28 203 49.0
e 28 135 10.0
e 29 36 1.0
e 29 303 1.0
e 29 232 1.0
e 29 150 1.0
e 30 183 1.0
e 30 312 1.0
e 30 79 1.0
e 30 129 1.0
e 31 278 1.0
e 31 108 2.0
e 31 59 1.0
e 31 69 2.0
e 32 265 1.0
e 32 222 1.0
e 32 25 1.0
e 32 303 1.0
e 33 187 37.0
e 33 202 2.0
e 33 195 1.0
e 33 61 1.0
e 34 45 2.0
e 34 307 2.0
e 34 17 1.0
e 34 96 2.0
e 35 146 1.0
e 35 294 1.0
e 35 238 1.0
e 35 94 2.0
e 36 82 1.0
e 36 248 2.0
e 36 153 38.0
e 36 265 2.0
e 37 181 1.0
e 37 280 1.0
e 37 244 1.0
e 37 164 1.0
e 38 59 1.0
e 38 47 1.0
e 38 57 1.0
e 38 16 1.0
e 39 29 1.0
e 39 297 2.0
e 39 301 2.0
e 39 124 1.0
e 40 306 1.0
e 40 26 20.0
e 40 127 1.0
e 40 95 2.0
e 41 146 1.0
e 41 237 1.0
e 41 74 1.0
e 41 89 1.0
e 42 133 1.0
e 42 318 1.0
e 42 98 1.0
e 42 296 1.0
e 43 36 2.0
e 43 252 1.0
e 43 76 1.0
e 43 205 1.0
e 44 258 1.0
e 44 239 14.0
e 44 91 1.0
e 44 114 1.0
e 45 200 1.0
e 45 141 3.0
e 45 1 1.0
e 45 180 1.0
e 46 115 2.0
e 46 282 1.0
e 46 155 1.0
e 46 171 1.0
e 47 102 1.0
e 47 62 1.0
e 47 287 1.0
e 47 112 1.0
e 48 289 1.0
e 48 62 1.0
e 48 161 1.0
e 48 103 2.0
e 49 181 1.0
e 49 117 2.0
e 49 70 1.0
e 49 237 1.0
e 50 183 2.0
e 50 155 1.0
e 50 125 1.0
e 50 217 1.0
e 51 147 1.0
e 51 239 48.0
e 51 206 1.0
e 51 116 2.0
e 52 251 1.0
e 52 306 1.0
e 52 233 3.0
e 52 148 1.0
e 53 311 1.0
e 53 129 1.0
e 53 58 1.0
e 53 224 2.0
e 54 182 44.0
e 54 31 2.0
e 54 35 2.0
e 54 5 1.0
e 55 145 1.0
e 55 218 1.0
e 55 179 1.0
e 55 277 1.0
e 56 241 1.0
e 56 124 1.0
e 56 291 1.0
e 56 163 2.0
e 57 80 1.0
e 57 83 1.0
e 57 174 1.0
e 57 93 1.0
e 58 271 1.0
e 58 231 2.0
e 58 247 1.0
e 58 239 44.0
e 59 307 2.0
e 59 213 1.0
e 59 6 1.0
e 59 184 2.0
e 60 287 1.0
e 60 315 1.0
e 60 214 1.0
e 60 151 1.0
e 61 48 1.0
e 61 291 2.0
e 61 135 27.0
e 61 51 1.0
e 62 161 1.0
e 62 140 1.0
e 62 175 1.0
e 62 220 1.0
e 63 106 1.0
e 63 154 2.0
e 63 71 2.0
e 63 236 2.0
e 64 96 1.0
e 64 56 1.0
e 64 93 1.0
e 64 313 1.0
e 65 84 1.0
e 65 265 1.0
e 65 233 1.0
e 65 71 1.0
e 66 225 1.0
e 66 16 1.0
e 66 29 1.0
e 66 293 1.0
e 67 146 2.0
e 67 241 1.0
e 67 17 2.0
e 67 173 1.0
e 68 203 13.0
e 68 260 2.0
e 68 204 1.0
e 68 103 1.0
e 69 2 28.0
e 69 289 2.0
e 69 85 1.0
e 69 213 2.0
e 70 89 1.0
e 70 24 1.0
e 70 249 1.0
e 70 157 1.0
e 71 84 1.0
e 71 144 3.0
e 71 186 1.0
e 71 260 1.0
e 72 139 1.0
e 72 145 1.0
e 72 147 2.0
e 72 204 2.0
e 73 35 1.0
e 73 274 1.0
e 73 208 2.0
e 73 119 1.0
e 74 291 1.0
e 74 65 2.0
e 74 136 1.0
e 74 184 1.0
e 75 246 1.0
e 75 7 1.0
e 75 40 1.0
e 76 3 1.0
e 76 143 1.0
e 76 36 1.0
e 76 270 1.0
e 77 300 1.0
e 77 97 1.0
e 77 176 1.0
e 77 19 1.0
e 78 227 1.0
e 78 240 3.0
e 78 261 1.0
e 78 97 1.0
e 79 201 1.0
e 79 256 1.0
e 79 243 1.0
e 79 250 1.0
e 80 178 6.0
e 80 125 2.0
e 80 1 3.0
e 80 8 2.0
e 81 242 1.0
e 81 106 1.0
e 81 125 1.0
e 81 180 1.0
e 82 2 9.0
e 82 59 1.0
e 82 241 2.0
e 82 173 1.0
e 83 192 40.0
e 83 128 1.0
e 83 86 2.0
e 83 296 1.0
e 84 182 41.0
e 84 68 1.0
e 84 122 35.0
e 84 300 1.0
e 85 117 1.0
e 85 207 1.0
e 85 176 1.0
e 85 231 1.0
e 86 172 1.0
e 86 197 1.0
e 86 5 1.0
e 86 44 2.0
e 87 218 1.0
e 87 265 1.0
e 87 193 1.0
e 87 168 1.0
e 88 170 1.0
e 88 173 1.0
e 88 75 1.0
e 88 299 1.0
e 89 167 1.0
e 89 311 1.0
e 89 0 1.0
e 89 32 1.0
e 90 276 1.0
e 90 243 1.0
e 90 45 1.0
e 91 175 1.0
e 91 294 2.0
e 91 126 2.0
e 91 266 1.0
e 92 296 1.0
e 92 273 1.0
e 92 210 28.0
e 92 34 1.0
e 93 306 1.0
e 93 185 1.0
e 93 88 1.0
e 93 188 1.0
e 94 121 2.0
e 94 309 2.0
e 94 8 1.0
e 94 290 1.0
e 95 36 1.0
e 95 1 1.0
e 95 227 1.0
e 95 182 2.0
e 96 106 2.0
e 96 35 2.0
e 96 39 1.0
e 96 10 31.0
e 97 208 1.0
e 97 48 1.0
e 97 80 1.0
e 97 257 1.0
e 98 316 1.0
e 98 218 1.0
e 98 280 1.0
e 98 11 1.0
e 99 258 1.0
e 99 44 1.0
e 99 147 1.0
e 99 48 1.0
e 100 262 1.0
e 100 1 1.0
e 100 224 2.0
e 100 290 1.0
e 101 283 1.0
e 101 220 2.0
e 101 119 1.0
e 101 210 15.0
e 102 80 1.0
e 102 51 1.0
e 102 58 1.0
e 102 258 1.0
e 103 46 3.0
e 103 57 2.0
e 103 18 1.0
e 104 77 1.0
e 104 213 1.0
e 104 292 1.0
e 104 175 1.0
e 105 242 2.0
e 105 149 2.0
e 105 9 2.0
e 105 26 41.0
e 106 295 1.0
e 106 50 2.0
e 106 112 1.0
e 107 209 1.0
e 107 102 1.0
e 107 273 1.0
e 107 130 1.0
e 108 27 1.0
e 108 15 1.0
e 108 30 1.0
e 108 253 2.0
e 109 229 1.0
e 109 302 1.0
e 109 66 1.0
e 109 30 1.0
e 110 277 38.0
e 110 133 40.0
e 110 156 35.0
e 110 296 10.0
e 110 284 28.0
e 110 122 26.0
e 110 203 15.0
e 110 153 10.0
e 110 135 34.0
e 110 314 36.0
e 110 159 7.0
e 110 2 1.0
e 111 115 1.0
e 111 185 1.0
e 111 59 1.0
e 111 61 1.0
e 112 139 2.0
e 112 114 2.0
e 112 128 1.0
e 112 298 1.0
e 113 44 2.0
e 113 3 1.0
e 113 162 1.0
e 113 124 1.0
e 114 157 1.0
e 114 290 2.0
e 114 57 3.0
e 114 295 1.0
e 115 283 1.0
e 115 34 2.0
e 115 299 1.0
e 115 251 2.0
e 116 11 1.0
e 116 3 2.0
e 116 50 1.0
e 116 222 1.0
e 117 52 3.0
e 117 169 2.0
e 117 33 2.0
e 117 271 1.0
e 118 23 2.0
e 118 236 1.0
e 118 50 2.0
e 118 45 1.0
e 119 49 1.0
e 119 185 1.0
e 119 290 1.0
e 119 26 24.0
e 120 95 3.0
e 120 90 1.0
e 120 316 1.0
e 120 228 1.0
e 121 318 2.0
e 121 208 2.0
e 121 50 2.0
e 121 49 2.0
e 122 298 5.0
e 122 176 3.0
e 122 27 49.0
e 122 86 42.0
e 122 135 19.0
e 123 197 1.0
e 123 36 1.0
e 123 104 1.0
e 123 294 1.0
e 124 126 1.0
e 124 99 1.0
e 124 249 1.0
e 124 19 1.0
e 125 313 1.0
e 125 213 1.0
e 125 29 1.0
e 125 207 1.0
e 126 251 1.0
e 126 184 1.0
e 126 4 3.0
e 126 240 1.0
e 127 11 1.0
e 127 17 3.0
e 127 295 2.0
e 127 159 15.0
e 128 122 15.0
e 128 267 1.0
e 128 18 1.0
e 128 26 3.0
e 129 87 1.0
e 129 159 30.0
e 129 25 1.0
e 129 6 1.0
e 130 299 1.0
e 130 161 1.0
e 130 206 1.0
e 130 257 1.0
e 131 135 8.0
e 131 227 1.0
e 131 66 2.0
e 131 317 2.0
e 132 309 1.0
e 132 32 1.0
e 132 55 1.0
e 132 200 1.0
e 133 83 1.0
e 133 191 1.0
e 133 3 1.0
e 133 36 1.0
e 134 164 2.0
e 134 210 4.0
e 134 238 1.0
e 134 116 1.0
e 135 260 43.0
e 135 189 10.0
e 135 239 21.0
e 135 270 33.0
e 135 314 43.0
e 135 153 35.0
e 135 159 9.0
e 135 178 34.0
e 136 97 1.0
e 136 13 1.0
e 136 304 1.0
e 136 303 1.0
e 137 117 1.0
e 137 230 1.0
e 137 273 1.0
e 137 64 1.0
e 138 23 1.0
e 138 96 2.0
e 138 85 2.0
e 138 250 1.0
e 139 71 1.0
e 139 231 1.0
e 139 291 3.0
e 139 35 1.0
e 140 264 1.0
e 140 100 1.0
e 140 86 1.0
e 140 65 2.0
e 141 220 1.0
e 141 188 2.0
e 141 280 1.0
e 141 17 1.0
e 142 139 1.0
e 142 249 1.0
e 142 213 1.0
e 142 261 2.0
e 143 249 1.0
e 143 46 1.0
e 143 17 2.0
e 143 275 1.0
e 144 117 1.0
e 144 201 1.0
e 144 197 1.0
e 144 19 1.0
e 145 134 2.0
e 145 127 2.0
e 145 106 1.0
e 145 38 1.0
e 146 139 2.0
e 146 138 2.0
e 146 262 1.0
e 146 219 1.0
e 147 19 1.0
e 147 131 1.0
e 147 237 1.0
e 147 98 1.0
e 148 38 1.0
e 148 240 1.0
e 148 136 1.0
e 148 171 1.0
e 149 19 1.0
e 149 128 1.0
e 149 271 1.0
e 149 157 1.0
e 150 308 1.0
e 150 34 1.0
e 150 259 1.0
e 150 86 1.0
e 151 122 42.0
e 151 3 1.0
e 151 101 2.0
e 151 145 2.0
e 152 252 1.0
e 152 300 1.0
e 152 93 1.0
e 152 108 1.0
e 153 145 24.0
e 153 314 21.0
e 153 237 48.0
e 153 122 34.0
e 153 284 5.0
e 153 159 30.0
e 153 239 30.0
e 153 10 39.0
e 154 126 1.0
e 154 132 1.0
e 154 147 2.0
e 155 101 3.0
e 155 17 1.0
e 155 129 1.0
e 155 236 2.0
e 156 121 1.0
e 156 258 2.0
e 156 222 1.0
e 156 229 2.0
e 157 262 1.0
e 157 317 1.0
e 157 270 1.0
e 157 289 1.0
e 158 15 3.0
e 158 219 1.0
e 158 247 1.0
e 158 66 2.0
e 159 313 2.0
e 159 189 18.0
e 159 71 15.0
e 159 122 25.0
e 159 284 12.0
e 159 178 31.0
e 159 314 37.0
e 159 182 38.0
e 159 187 48.0
e 159 10 3.0
e 160 38 2.0
e 160 130 1.0
e 160 185 1.0
e 160 306 1.0
e 161 127 2.0
e 161 61 1.0
e 161 212 1.0
e 161 116 1.0
e 162 69 1.0
e 162 7 1.0
e 162 191 2.0
e 162 241 2.0
e 163 271 2.0
e 163 169 2.0
e 163 260 1.0
e 163 233 2.0
e 164 149 1.0
e 164 305 1.0
e 164 35 1.0
e 164 75 2.0
e 165 304 1.0
e 165 160 2.0
e 165 310 1.0
e 165 138 2.0
e 166 292 1.0
e 166 23 2.0
e 166 288 1.0
e 166 232 1.0
e 167 157 1.0
e 167 43 1.0
e 167 78 1.0
e 167 21 1.0
e 168 65 2.0
e 168 133 1.0
e 168 99 1.0
e 168 91 2.0
e 169 104 1.0
e 169 15 1.0
e 169 231 2.0
e 169 95 2.0
e 170 236 1.0
e 170 297 1.0
e 170 142 1.0
e 170 29 1.0
e 171 275 1.0
e 171 255 1.0
e 171 316 1.0
e 171 232 1.0
e 172 117 3.0
e 172 206 1.0
e 172 182 7.0
e 172 225 1.0
e 173 27 1.0
e 173 20 2.0
e 173 197 1.0
e 173 256 1.0
e 174 35 1.0
e 174 71 1.0
e 174 113 1.0
e 174 274 1.0
e 175 97 1.0
e 175 53 1.0
e 175 234 1.0
e 175 60 1.0
e 176 184 1.0
e 176 34 2.0
e 176 110 31.0
e 176 148 1.0
e 177 75 1.0
e 177 13 1.0
e 177 143 2.0
e 177 225 2.0
e 178 275 2.0
e 178 274 40.0
e 178 3 26.0
e 178 100 2.0
e 178 153 7.0
e 178 182 28.0
e 178 284 35.0
e 178 110 12.0
e 178 314 45.0
e 178 122 48.0
e 178 187 8.0
e 179 235 1.0
e 179 214 1.0
e 179 7 1.0
e 179 139 1.0
e 180 195 2.0
e 180 203 1.0
e 180 237 1.0
e 180 313 1.0
e 181 105 1.0
e 181 280 1.0
e 181 184 1.0
e 181 68 1.0
e 182 185 38.0
e 182 273 8.0
e 182 146 11.0
e 182 37 1.0
e 182 203 5.0
e 182 153 43.0
e 182 110 44.0
e 182 210 28.0
e 182 187 12.0
e 183 242 1.0
e 183 295 1.0
e 183 48 1.0
e 184 9 1.0
e 184 67 2.0
e 184 188 2.0
e 184 70 3.0
e 185 223 1.0
e 185 265 1.0
e 185 283 1.0
e 185 98 1.0
e 186 133 1.0
e 186 235 1.0
e 186 106 1.0
e 186 196 1.0
e 187 286 13.0
e 187 26 46.0
e 187 149 31.0
e 187 160 18.0
e 187 10 41.0
e 187 192 32.0
e 187 110 33.0
e 187 122 22.0
e 187 239 9.0
e 187 194 9.0
e 187 314 22.0
e 188 51 1.0
e 188 198 1.0
e 188 282 1.0
e 188 298 1.0
e 189 305 1.0
e 189 254 1.0
e 189 60 1.0
e 189 292 1.0
e 190 28 16.0
e 190 138 2.0
e 190 95 2.0
e 190 254 3.0
e 191 189 1.0
e 191 46 2.0
e 191 246 2.0
e 191 204 1.0
e 192 210 28.0
e 192 261 24.0
e 192 68 3.0
e 192 108 37.0
e 192 203 44.0
e 192 239 40.0
e 192 135 24.0
e 192 153 6.0
e 192 26 26.0
e 192 159 46.0
e 192 314 42.0
e 192 178 19.0
e 192 284 45.0
e 193 125 1.0
e 193 86 1.0
e 193 224 1.0
e 193 175 1.0
e 194 65 7.0
e 194 244 41.0
e 194 163 22.0
e 194 284 5.0
e 194 210 16.0
e 194 314 22.0
e 194 135 41.0
e 194 10 16.0
e 194 239 43.0
e 194 153 10.0
e 194 26 47.0
e 194 159 7.0
e 194 203 20.0
e 194 178 36.0
e 195 312 1.0
e 195 34 1.0
e 195 135 34.0
e 195 235 1.0
e 196 105 1.0
e 196 239 41.0
e 196 115 1.0
e 196 285 1.0
e 197 55 1.0
e 197 269 1.0
e 197 83 2.0
e 197 238 1.0
e 198 24 1.0
e 198 64 1.0
e 198 199 1.0
e 198 35 1.0
e 199 75 2.0
e 199 57 1.0
e 199 200 1.0
e 199 51 2.0
e 200 124 1.0
e 200 279 1.0
e 200 145 1.0
e 200 206 1.0
e 201 68 1.0
e 201 18 1.0
e 201 102 1.0
e 201 214 1.0
e 202 142 1.0
e 202 43 1.0
e 202 199 1.0
e 202 317 1.0
e 203 16 21.0
e 203 237 35.0
e 203 255 3.0
e 203 285 34.0
e 203 153 37.0
e 203 210 40.0
e 203 239 5.0
e 203 135 10.0
e 203 159 6.0
e 204 150 1.0
e 204 236 1.0
e 204 137 1.0
e 204 274 1.0
e 205 125 1.0
e 205 72 2.0
e 205 71 1.0
e 205 20 1.0
e 206 234 1.0
e 206 292 1.0
e 206 193 1.0
e 206 46 1.0
e 207 37 2.0
e 207 255 2.0
e 207 268 1.0
e 207 181 1.0
e 208 314 29.0
e 208 184 1.0
e 208 301 1.0
e 208 126 1.0
e 209 61 2.0
e 209 229 1.0
e 209 313 2.0
e 209 146 2.0
e 210 223 38.0
e 210 316 2.0
e 210 149 21.0
e 210 76 31.0
e 210 153 20.0
e 210 239 24.0
e 210 178 32.0
e 211 247 1.0
e 211 22 1.0
e 211 59 1.0
e 211 310 1.0
e 212 110 38.0
e 212 165 2.0
e 212 0 3.0
e 212 88 1.0
e 213 185 2.0
e 213 196 2.0
e 213 264 1.0
e 213 297 1.0
e 214 197 1.0
e 214 307 1.0
e 214 95 1.0
e 214 196 2.0
e 215 254 1.0
e 215 316 2.0
e 215 63 1.0
e 215 294 1.0
e 216 175 1.0
e 216 167 2.0
e 216 200 2.0
e 216 141 3.0
e 217 16 1.0
e 217 168 1.0
e 217 244 1.0
e 217 268 1.0
e 218 49 1.0
e 218 9 1.0
e 218 160 1.0
e 218 144 1.0
e 219 313 2.0
e 219 298 2.0
e 219 299 1.0
e 219 112 1.0
e 220 202 1.0
e 220 263 1.0
e 220 19 1.0
e 220 197 1.0
e 221 47 1.0
e 221 190 3.0
e 221 114 3.0
e 221 229 1.0
e 222 35 1.0
e 222 81 1.0
e 222 133 1.0
e 223 30 1.0
e 223 144 1.0
e 223 263 1.0
e 223 134 2.0
e 224 159 33.0
e 224 240 2.0
e 224 279 1.0
e 224 44 1.0
e 225 279 1.0
e 225 18 1.0
e 225 69 1.0
e 225 253 1.0
e 226 149 1.0
e 226 111 1.0
e 226 297 1.0
e 227 55 1.0
e 227 86 1.0
e 227 71 1.0
e 227 85 1.0
e 228 128 1.0
e 228 100 1.0
e 228 117 3.0
e 228 173 3.0
e 229 274 2.0
e 229 20 1.0
e 229 9 1.0
e 229 302 2.0
e 230 184 3.0
e 230 122 39.0
e 230 52 1.0
e 230 118 1.0
e 231 26 46.0
e 231 21 1.0
e 231 31 1.0
e 231 70 1.0
e 232 225 1.0
e 232 61 1.0
e 232 266 1.0
e 232 139 1.0
e 233 28 1.0
e 233 234 1.0
e 233 298 1.0
e 233 229 2.0
e 234 301 1.0
e 234 311 1.0
e 234 121 2.0
e 234 303 1.0
e 235 26 45.0
e 235 306 1.0
e 235 72 1.0
e 235 310 1.0
e 236 139 2.0
e 236 209 3.0
e 236 269 1.0
e 236 165 2.0
e 237 104 1.0
e 237 131 1.0
e 237 212 1.0
e 237 75 2.0
e 238 180 1.0
e 238 275 2.0
e 238 212 1.0
e 238 119 2.0
e 239 235 47.0
e 239 34 5.0
e 239 87 37.0
e 239 107 34.0
e 240 233 1.0
e 240 111 1.0
e 240 215 2.0
e 240 299 1.0
e 241 173 2.0
e 241 210 48.0
e 241 140 2.0
e 241 81 2.0
e 242 283 1.0
e 242 306 2.0
e 242 62 1.0
e 243 175 1.0
e 243 219 1.0
e 243 12 1.0
e 244 163 1.0
e 244 140 1.0
e 244 266 1.0
e 244 222 2.0
e 245 168 1.0
e 245 18 1.0
e 245 261 1.0
e 245 144 2.0
e 246 256 1.0
e 246 91 1.0
e 246 278 2.0
e 246 34 2.0
e 247 129 1.0
e 247 218 1.0
e 247 232 1.0
e 247 21 1.0
e 248 313 1.0
e 248 235 1.0
e 248 215 2.0
e 248 68 1.0
e 249 89 1.0
e 249 17 1.0
e 249 221 1.0
e 249 146 1.0
e 250 10 36.0
e 250 69 1.0
e 250 221 1.0
e 250 108 1.0
e 251 234 1.0
e 251 315 1.0
e 251 218 1.0
e 251 171 1.0
e 252 163 2.0
e 252 127 2.0
e 252 261 1.0
e 252 65 2.0
e 253 274 1.0
e 253 130 1.0
e 253 46 1.0
e 253 5 2.0
e 254 80 1.0
e 254 185 1.0
e 254 118 1.0
e 254 43 1.0
e 255 202 1.0
e 255 218 1.0
e 255 84 1.0
e 255 34 1.0
e 256 75 2.0
e 256 282 1.0
e 256 202 1.0
e 256 245 1.0
e 257 220 1.0
e 257 234 1.0
e 257 150 1.0
e 257 126 1.0
e 258 135 47.0
e 258 311 3.0
e 258 285 1.0
e 258 318 1.0
e 259 3 1.0
e 259 88 1.0
e 259 264 2.0
e 259 53 3.0
e 260 271 1.0
e 260 258 2.0
e 260 193 2.0
e 260 29 2.0
e 261 190 1.0
e 261 35 1.0
e 261 198 1.0
e 261 11 2.0
e 262 271 1.0
e 262 55 1.0
e 262 184 1.0
e 262 293 1.0
e 263 164 1.0
e 263 64 1.0
e 263 312 1.0
e 263 189 1.0
e 264 234 1.0
e 264 228 3.0
e 264 114 1.0
e 264 267 2.0
e 265 218 1.0
e 265 149 1.0
e 265 56 1.0
e 265 178 21.0
e 266 127 1.0
e 266 294 1.0
e 266 306 1.0
e 266 125 1.0
e 267 164 2.0
e 267 240 2.0
e 267 192 41.0
e 267 30 2.0
e 268 222 1.0
e 268 177 1.0
e 268 205 1.0
e 268 0 1.0
e 269 278 1.0
e 269 262 1.0
e 269 214 1.0
e 269 83 1.0
e 270 29 1.0
e 270 300 1.0
e 270 203 4.0
e 270 64 1.0
e 271 205 1.0
e 271 155 1.0
e 271 285 1.0
e 271 137 1.0
e 272 220 1.0
e 272 67 1.0
e 272 70 1.0
e 272 83 2.0
e 273 102 2.0
e 273 119 2.0
e 273 144 1.0
e 273 301 1.0
e 274 13 1.0
e 274 195 2.0
e 274 158 1.0
e 274 238 2.0
e 275 226 1.0
e 275 297 1.0
e 275 266 3.0
e 275 23 1.0
e 276 283 1.0
e 276 298 1.0
e 276 58 1.0
e 276 140 1.0
e 277 22 1.0
e 277 69 1.0
e 277 32 2.0
e 277 76 1.0
e 278 156 1.0
e 278 77 1.0
e 278 200 2.0
e 279 0 1.0
e 279 40 1.0
e 279 155 1.0
e 279 294 1.0
e 280 8 1.0
e 280 143 1.0
e 280 130 1.0
e 280 157 1.0
e 281 113 1.0
e 281 76 1.0
e 281 267 2.0
e 281 188 1.0
e 282 112 1.0
e 282 213 1.0
e 282 237 1.0
e 282 247 1.0
e 283 307 2.0
e 283 31 1.0
e 283 215 2.0
e 283 40 1.0
e 284 191 10.0
e 284 184 47.0
e 284 58 43.0
e 284 172 1.0
e 284 182 40.0
e 284 26 16.0
e 284 187 10.0
e 285 10 37.0
e 285 164 1.0
e 285 201 1.0
e 285 191 1.0
e 286 80 1.0
e 286 182 9.0
e 286 207 1.0
e 286 132 1.0
e 287 131 3.0
e 287 192 14.0
e 287 307 1.0
e 287 14 34.0
e 288 270 1.0
e 288 283 1.0
e 288 184 1.0
e 288 308 1.0
e 289 316 1.0
e 289 268 1.0
e 289 113 1.0
e 289 161 1.0
e 290 188 1.0
e 290 36 2.0
e 290 241 2.0
e 290 162 1.0
e 291 26 6.0
e 291 108 1.0
e 291 307 1.0
e 291 208 1.0
e 292 130 1.0
e 292 234 1.0
e 292 27 1.0
e 292 222 1.0
e 293 122 32.0
e 293 303 1.0
e 293 288 1.0
e 293 274 3.0
e 294 137 2.0
e 294 1 1.0
e 294 184 2.0
e 294 94 1.0
e 295 185 1.0
e 295 165 1.0
e 295 144 1.0
e 295 297 1.0
e 296 34 1.0
e 296 122 9.0
e 296 80 1.0
e 296 223 1.0
e 297 56 1.0
e 297 60 1.0
e 297 119 2.0
e 297 127 1.0
e 298 104 1.0
e 298 279 1.0
e 298 166 1.0
e 298 297 2.0
e 299 193 1.0
e 299 265 1.0
e 299 19 1.0
e 299 199 2.0
e 300 242 1.0
e 300 315 1.0
e 300 106 1.0
e 300 103 2.0
e 301 13 2.0
e 301 15 1.0
e 301 27 1.0
e 301 10 40.0
e 302 99 1.0
e 302 183 2.0
e 302 205 1.0
e 302 254 1.0
e 303 138 1.0
e 303 165 1.0
e 303 84 1.0
e 303 39 2.0
e 304 31 1.0
e 304 256 1.0
e 304 70 1.0
e 304 58 1.0
e 305 244 2.0
e 305 149 1.0
e 305 130 1.0
e 305 129 1.0
e 306 111 2.0
e 306 7 2.0
e 306 270 1.0
e 306 73 2.0
e 307 102 1.0
e 307 242 1.0
e 307 309 3.0
e 307 239 37.0
e 308 156 2.0
e 308 117 1.0
e 308 142 1.0
e 308 289 1.0
e 309 27 1.0
e 309 166 1.0
e 309 89 1.0
e 309 40 1.0
e 310 38 1.0
e 310 27 2.0
e 310 140 1.0
e 310 201 1.0
e 311 276 1.0
e 311 130 1.0
e 311 85 1.0
e 311 127 1.0
e 312 213 1.0
e 312 236 1.0
e 312 295 1.0
e 313 272 1.0
e 313 86 1.0
e 313 317 1.0
e 313 81 3.0
e 314 151 33.0
e 314 265 47.0
e 314 72 42.0
e 314 75 11.0
e 314 203 25.0
e 315 34 1.0
e 315 9 1.0
e 315 245 1.0
e 315 133 1.0
e 316 157 2.0
e 316 141 1.0
e 316 148 2.0
e 316 167 1.0
e 317 210 21.0
e 317 63 1.0
e 317 233 1.0
e 317 221 2.0
e 318 117 1.0
e 318 289 1.0
e 318 5 1.0
e 318 242 1.0
e 319 14 28.0
e 319 155 1.0
e 319 88 4.0
e 319 309 3.0
